NAME : in_house_7_24
TYPE : TSP
DIMENSION : 7
EDGE_WEIGHT_TYPE : EXPLICIT
EDGE_WEIGHT_FORMAT : UPPER_ROW
COMMENT : INVERSION_SHIFT=7
EDGE_WEIGHT_SECTION
31
48
31
37
29
13
7
15
29
8
11
40
47
46
37
31
3
9
1
15
12
